
******************************************************************************
This program contains Ipopt, a library for large-scale nonlinear optimization.
 Ipopt is released as open source code under the Eclipse Public License (EPL).
         For more information visit http://projects.coin-or.org/Ipopt
******************************************************************************

This is Ipopt version 3.12.13, running with linear solver mumps.
NOTE: Other linear solvers might be more efficient (see Ipopt documentation).

Number of nonzeros in equality constraint Jacobian...:      365
Number of nonzeros in inequality constraint Jacobian.:      120
Number of nonzeros in Lagrangian Hessian.............:      144

Total number of variables............................:       85
                     variables with only lower bounds:       16
                variables with lower and upper bounds:       41
                     variables with only upper bounds:        0
Total number of equality constraints.................:       82
Total number of inequality constraints...............:       36
        inequality constraints with only lower bounds:        8
   inequality constraints with lower and upper bounds:        0
        inequality constraints with only upper bounds:       28

iter    objective    inf_pr   inf_du lg(mu)  ||d||  lg(rg) alpha_du alpha_pr  ls
   0  1.7604503e+03 2.97e-04 1.00e+02   0.0 0.00e+00    -  0.00e+00 0.00e+00   0
   1  1.7604531e+03 2.97e-04 4.46e+04   0.5 3.16e+03    -  1.84e-03 1.07e-07f  2
   2  1.7641263e+03 2.96e-04 2.71e+08   1.5 3.39e+02    -  4.57e-07 1.31e-03f  1
   3  1.8079936e+03 9.31e-04 1.08e+11   0.8 3.41e+01    -  2.73e-04 1.34e-01f  1
   4  1.7794285e+03 1.17e-03 8.92e+10   0.1 1.88e+01   2.0 1.19e-01 1.74e-01f  1
   5  1.7712857e+03 1.12e-03 8.34e+10  -0.6 1.25e+01    -  2.82e-01 6.52e-02f  1
   6  1.7600168e+03 1.06e-03 7.46e+10  -1.3 1.07e+01    -  3.41e-01 1.05e-01f  1
   7  1.7599179e+03 1.04e-03 7.29e+10   0.3 1.79e+00    -  1.00e+00 2.49e-02h  1
   8  1.7604605e+03 5.25e-06 3.68e+11   0.6 1.75e+00    -  1.00e+00 9.95e-01h  1
   9  1.7604703e+03 5.16e-08 4.02e+09   0.4 2.46e-02    -  9.90e-01 9.90e-01h  1
iter    objective    inf_pr   inf_du lg(mu)  ||d||  lg(rg) alpha_du alpha_pr  ls
  10  1.7604713e+03 4.52e-08 3.70e+09  -1.5 9.61e-04    -  1.00e+00 1.25e-01f  4
  11  1.7605737e+03 2.92e-08 1.89e+09  -1.6 2.50e-02    -  1.00e+00 5.00e-01f  2
  12  1.7606014e+03 2.24e-08 1.41e+09  -1.6 1.35e-02    -  8.18e-01 2.50e-01f  3
  13  1.7604643e+03 1.18e-08 3.75e+06  -2.8 1.67e-02    -  1.00e+00 1.00e+00f  1
  14  1.7604786e+03 1.27e-10 1.53e+04  -2.5 1.74e-03    -  1.00e+00 1.00e+00f  1
  15  1.7604992e+03 2.68e-10 5.73e+04  -2.3 2.52e-03    -  1.00e+00 1.00e+00f  1
  16  1.7604893e+03 6.26e-11 1.11e+05  -2.4 4.77e-03    -  6.60e-01 1.00e+00f  1
  17  1.7605246e+03 7.85e-10 3.81e+05  -2.1 9.54e-03    -  1.00e+00 1.00e+00f  1
  18  1.7605130e+03 8.39e-11 3.66e+05  -2.2 1.91e-02    -  5.99e-01 1.00e+00f  1
  19  1.7604540e+03 2.19e-09 2.68e+06  -3.3 3.82e-02    -  5.21e-01 1.00e+00f  1
iter    objective    inf_pr   inf_du lg(mu)  ||d||  lg(rg) alpha_du alpha_pr  ls
  20  1.7604591e+03 1.71e-11 1.31e+05  -3.1 7.63e-02    -  1.00e+00 1.00e+00f  1
  21  1.7604619e+03 5.71e-12 8.76e+05  -2.9 1.50e-01    -  1.00e+00 1.00e+00f  1
  22  1.7605159e+03 1.84e-09 3.78e+07  -2.0 4.57e-01    -  1.00e+00 1.00e+00f  1
WARNING: Problem in step computation; switching to emergency mode.
  23r 1.7605159e+03 1.84e-09 1.00e+03  -2.1 0.00e+00  19.8 0.00e+00 0.00e+00R  1
  24r 1.7605159e+03 1.75e-09 1.00e+01  -8.1 7.91e-06    -  9.90e-01 9.75e-01f  1
  25r 1.7605159e+03 2.93e-11 1.00e-01  -9.0 4.04e-06    -  9.90e-01 9.90e-01f  1
  26  1.7605234e+03 2.92e-11 7.73e+04  -2.1 1.50e+00    -  3.71e-02 2.95e-03f  4
WARNING: Problem in step computation; switching to emergency mode.
  27r 1.7605234e+03 2.92e-11 1.00e+03  -2.1 0.00e+00    -  0.00e+00 0.00e+00R  1
  28r 1.7605260e+03 1.15e-07 1.48e+01  -4.9 3.29e-04    -  9.90e-01 9.86e-01f  1
  29r 1.7605290e+03 2.55e-09 1.22e+01  -6.9 3.57e-04    -  9.90e-01 9.79e-01f  1
iter    objective    inf_pr   inf_du lg(mu)  ||d||  lg(rg) alpha_du alpha_pr  ls
  30  1.7605303e+03 2.55e-09 3.17e+05  -2.1 2.92e+00    -  2.87e-01 6.10e-05f 15
WARNING: Problem in step computation; switching to emergency mode.
  31r 1.7605303e+03 2.55e-09 1.00e+03  -2.1 0.00e+00    -  0.00e+00 0.00e+00R  1
  32r 1.7605307e+03 6.37e-08 1.26e+01  -5.0 4.75e-05    -  9.90e-01 9.87e-01f  1
  33r 1.7605311e+03 2.02e-09 8.18e+00  -7.0 4.61e-05    -  9.90e-01 9.80e-01f  1
  34  1.7605346e+03 2.02e-09 6.19e+05  -2.1 1.23e+00    -  5.02e-01 4.90e-04f  5
WARNING: Problem in step computation; switching to emergency mode.
  35r 1.7605346e+03 2.02e-09 1.00e+03  -2.1 0.00e+00    -  0.00e+00 0.00e+00R  1
  36r 1.7605348e+03 4.45e-08 1.13e+01  -5.2 3.74e-05    -  9.90e-01 9.88e-01f  1
  37r 1.7605350e+03 1.51e-09 5.28e+00  -7.2 2.14e-05    -  9.90e-01 9.81e-01f  1
  38  1.7605299e+03 1.51e-09 4.51e+05  -2.1 1.20e+01    -  5.15e-03 6.06e-04f  3
  39  1.7605299e+03 1.51e-09 1.35e+06  -2.1 1.58e-14  19.9 9.92e-01 1.00e+00h  1
iter    objective    inf_pr   inf_du lg(mu)  ||d||  lg(rg) alpha_du alpha_pr  ls
  40  1.7605299e+03 1.51e-09 7.98e+05  -3.2 2.79e-14  19.5 9.92e-01 1.00e+00h  1
  41  1.7605299e+03 1.51e-09 8.77e+05  -4.8 1.47e-14  19.9 1.00e+00 3.13e-02h  6
  42  1.7604585e+03 3.38e-09 8.75e+05  -7.1 1.26e+01    -  3.80e-02 2.01e-03f  1
  43  1.7604585e+03 3.38e-09 2.86e+06  -7.1 1.12e-13  19.4 1.00e+00 1.00e+00h  1
  44  1.7604546e+03 3.37e-09 2.90e+06  -7.1 8.11e+00    -  3.83e-03 3.78e-03f  1
  45  1.7604546e+03 3.37e-09 3.89e+06  -7.1 5.71e-14  19.8 1.00e+00 1.00e+00h  1
  46  1.7604522e+03 4.99e-06 3.69e+06  -7.1 3.84e+00    -  1.72e-01 8.52e-03f  1
  47  1.7604522e+03 4.99e-06 1.95e+07 -11.0 8.57e-13  19.4 1.00e+00 1.00e+00h  1
  48  1.7604522e+03 4.99e-06 6.21e+07 -11.0 1.03e-12  19.8 1.00e+00 1.00e+00h  1
In iteration 48, 1 Slack too small, adjusting variable bound
  49  1.7604522e+03 4.99e-06 6.21e+07 -11.0 4.45e+00    -  1.13e-03 7.08e-05h  1
iter    objective    inf_pr   inf_du lg(mu)  ||d||  lg(rg) alpha_du alpha_pr  ls
  50  1.7604522e+03 4.99e-06 3.17e+08 -11.0 1.57e-11  19.3 1.00e+00 1.00e+00h  1
  51  1.7604522e+03 4.99e-06 4.81e+08 -11.0 8.93e-12  19.7 1.00e+00 1.00e+00h  1
WARNING: Problem in step computation; switching to emergency mode.
  52r 1.7604522e+03 4.99e-06 9.99e+02  -5.3 0.00e+00  19.3 0.00e+00 0.00e+00R  1
  53r 1.7604530e+03 1.83e-06 4.58e+02  -5.6 2.94e-01    -  9.89e-01 9.88e-04f  1
  54  1.7604523e+03 2.53e-06 4.45e+02 -11.0 9.67e+02    -  1.00e-01 3.02e-07f  1
In iteration 54, 1 Slack too small, adjusting variable bound
  55  1.7604522e+03 2.27e-06 5.18e+02 -11.0 7.48e-01    -  1.31e-01 1.01e-01h  1
  56  1.7604522e+03 2.21e-06 3.85e+03 -11.0 6.45e-01    -  1.00e+00 2.78e-02h  1
  57r 1.7604522e+03 2.21e-06 1.00e+03  -5.7 0.00e+00    -  0.00e+00 4.87e-08R  2
  58r 1.7604522e+03 3.06e-08 1.00e+01  -7.9 4.65e+00    -  9.90e-01 9.90e-04f  1
  59  1.7604513e+03 3.51e-06 1.48e+09   1.5 1.94e+03    -  5.08e-01 1.80e-07f  1
iter    objective    inf_pr   inf_du lg(mu)  ||d||  lg(rg) alpha_du alpha_pr  ls
  60  1.8540775e+03 6.84e-03 2.89e+09   1.0 2.07e+02    -  3.23e-02 6.22e-02f  1
  61  1.7635587e+03 1.13e-02 2.86e+09   2.2 1.04e+02    -  1.09e-01 1.33e-01f  1
  62r 1.7635587e+03 1.13e-02 1.00e+03   1.5 0.00e+00  19.7 0.00e+00 4.77e-07R 22
  63r 1.7520536e+03 1.92e-02 1.14e+03  -4.4 6.13e+01    -  6.05e-02 2.29e-02f  1
  64  1.7520546e+03 1.92e-02 8.99e+07  -0.3 3.95e+01    -  5.30e-01 2.58e-05h  1
  65  1.7469191e+03 1.64e-02 6.08e+07  -0.3 4.88e+00    -  2.60e-01 1.49e-01h  1
  66  1.7782259e+03 1.82e-03 3.01e+08   0.3 3.76e+00    -  5.04e-01 8.86e-01h  1
WARNING: Problem in step computation; switching to emergency mode.
  67r 1.7782259e+03 1.82e-03 1.00e+03   0.8 0.00e+00  19.2 0.00e+00 0.00e+00R  1
  68r 1.7641979e+03 5.63e-03 1.68e+05  -0.4 2.97e+01    -  2.97e-01 3.76e-02f  1
  69  1.7642581e+03 5.63e-03 2.70e+04   0.8 4.19e+02    -  6.53e-02 5.51e-05h  1
iter    objective    inf_pr   inf_du lg(mu)  ||d||  lg(rg) alpha_du alpha_pr  ls
  70  1.7673372e+03 5.52e-03 3.82e+06   0.8 1.85e+01    -  8.21e-01 1.97e-02f  6
  71  1.8164699e+03 5.39e-05 4.24e+06   0.8 5.30e+00    -  1.00e+00 9.90e-01H  1
  72  1.8164422e+03 9.16e-07 2.63e+06   0.8 1.01e-01    -  1.00e+00 9.90e-01h  1
  73  1.7847537e+03 3.79e-07 1.78e+09   0.1 3.85e+00    -  7.21e-01 1.00e+00H  1
  74  1.7697463e+03 1.38e-04 3.28e+05   0.1 1.89e+00    -  1.00e+00 1.00e+00f  1
  75  1.7619505e+03 3.77e-05 1.30e+08  -0.6 9.31e-01    -  5.40e-01 1.00e+00f  1
  76  1.7625445e+03 1.92e-07 4.12e+04  -0.6 7.45e-02    -  1.00e+00 1.00e+00f  1
  77  1.7608329e+03 1.83e-06 2.68e+07  -1.3 2.09e-01    -  5.25e-01 1.00e+00f  1
  78  1.7605306e+03 5.81e-08 2.44e+04  -2.0 3.67e-02    -  1.00e+00 1.00e+00f  1
  79  1.7604607e+03 3.08e-09 9.75e+05  -3.0 8.51e-03    -  6.18e-01 1.00e+00f  1
iter    objective    inf_pr   inf_du lg(mu)  ||d||  lg(rg) alpha_du alpha_pr  ls
  80  1.7604532e+03 3.59e-11 5.88e+05  -4.6 9.20e-04    -  5.26e-01 1.00e+00f  1
  81  1.7604532e+03 2.59e-12 7.38e+02  -4.6 5.16e-04    -  1.00e+00 1.00e+00h  1
  82  1.7604534e+03 5.02e-11 3.69e+02  -4.3 1.03e-03    -  1.00e+00 1.00e+00f  1
  83  1.7604533e+03 3.68e-12 1.17e+03  -4.3 2.03e-03    -  6.32e-01 1.00e+00f  1
  84  1.7604530e+03 5.00e-06 1.20e+04  -6.5 4.00e-03    -  5.02e-01 9.99e-01f  1
  85  1.7604530e+03 4.25e-08 2.41e+06  -6.5 7.70e-03    -  1.59e-04 1.00e+00h  1
  86  1.7604530e+03 3.26e-09 2.01e+05  -6.1 1.43e-02    -  1.00e+00 1.00e+00h  1
  87  1.7604530e+03 1.42e-10 1.51e+04  -5.7 2.51e-02    -  1.00e+00 1.00e+00h  1
  88  1.7604529e+03 5.85e-12 7.92e+02  -5.5 5.00e-02    -  1.00e+00 1.00e+00f  1
  89  1.7604528e+03 8.30e-10 2.87e+03  -5.2 1.02e-01    -  1.00e+00 1.00e+00f  1
iter    objective    inf_pr   inf_du lg(mu)  ||d||  lg(rg) alpha_du alpha_pr  ls
  90  1.7604526e+03 7.15e-10 1.66e+04  -4.8 1.99e-01    -  1.00e+00 1.00e+00f  1
  91  1.7604523e+03 1.24e-10 5.88e+04  -4.6 5.15e+01    -  1.00e+00 1.00e+00H  1
  92  1.7604522e+03 2.57e-10 9.49e+05  -4.1 1.72e+00    -  1.00e+00 1.00e+00f  1
  93  1.7596949e+03 4.43e-04 2.74e+05  -4.2 7.03e-01    -  1.00e+00 1.00e+00f  1
  94  1.7596949e+03 4.43e-04 1.04e+06  -6.3 2.43e-14  19.6 1.00e+00 1.00e+00h  1
  95  1.7596949e+03 4.43e-04 4.71e+06  -6.4 3.32e-13  19.2 1.00e+00 1.00e+00h  1
  96  1.7596958e+03 4.43e-04 4.70e+06  -5.6 1.22e+00    -  1.00e+00 1.72e-03h  1
  97  1.7596958e+03 4.43e-04 6.99e+06  -7.6 1.48e-12  18.7 1.00e+00 1.00e+00h  1
  98  1.7596958e+03 4.43e-04 1.42e+07  -9.1 9.03e-12  18.2 1.00e+00 1.00e+00h  1
  99  1.7596958e+03 4.43e-04 3.10e+07 -11.0 5.90e-11  17.7 1.00e+00 1.00e+00h  1
iter    objective    inf_pr   inf_du lg(mu)  ||d||  lg(rg) alpha_du alpha_pr  ls
 100  1.7596958e+03 4.43e-04 8.20e+07 -10.7 4.68e-10  17.2 1.00e+00 1.00e+00h  1
 101  1.7596958e+03 4.43e-04 1.25e+08 -10.4 2.14e-09  16.8 1.00e+00 1.00e+00h  1
 102  1.7596958e+03 4.44e-04 1.57e+08 -10.1 8.05e-09  16.3 1.00e+00 1.00e+00h  1
 103  1.7596958e+03 4.45e-04 1.75e+08  -9.8 2.70e-08  15.8 1.00e+00 1.00e+00h  1
 104  1.7596958e+03 4.42e-04 1.68e+08 -10.3 7.78e-08  15.3 1.00e+00 1.00e+00h  1
 105  1.7596957e+03 4.43e-04 1.04e+08 -11.0 1.44e-07  14.9 1.00e+00 1.00e+00h  1
In iteration 105, 1 Slack too small, adjusting variable bound
 106  1.7596957e+03 4.42e-04 5.94e+07 -11.0 1.28e-07  14.4 1.00e+00 4.40e-01h  1
 107  1.7596957e+03 4.43e-04 2.31e+07 -11.0 2.88e-07  13.9 6.90e-03 1.00e+00h  1
 108  1.7596958e+03 4.43e-04 6.68e+06 -11.0 2.50e-07  13.4 1.00e+00 1.00e+00h  1
 109  1.7596958e+03 4.43e-04 3.35e+06  -9.1 2.21e-07  12.9 1.00e+00 3.85e-01h  1
iter    objective    inf_pr   inf_du lg(mu)  ||d||  lg(rg) alpha_du alpha_pr  ls
 110  1.7596958e+03 4.43e-04 3.35e+06  -7.1 3.35e+04    -  1.47e-08 1.87e-08f  1
 111  1.7596958e+03 4.43e-04 3.35e+06  -8.4 2.94e-07  12.5 1.00e+00 1.03e-04h  2
 112  1.7596958e+03 4.43e-04 3.34e+06  -8.5 2.12e-07  12.0 6.22e-02 2.32e-03h  3
 113  1.7596958e+03 4.43e-04 3.32e+06  -7.7 6.03e-07  11.5 1.00e+00 5.81e-03h  2
 114  1.7596958e+03 4.43e-04 3.30e+06  -5.1 1.72e-06  11.0 3.57e-02 5.53e-03h  2
 115  1.7596958e+03 4.42e-04 3.22e+06  -4.5 5.23e-06  10.6 2.05e-01 2.65e-02f  2
 116  1.7596954e+03 4.45e-04 1.81e+05  -3.1 1.48e-05  10.1 6.93e-02 1.00e+00f  1
 117  1.7596954e+03 4.51e-04 1.58e+06  -3.7 7.57e-07  12.3 1.00e+00 1.00e+00h  1
 118  1.7596955e+03 4.50e-04 1.95e+06  -5.6 2.81e-06  11.8 4.64e-01 1.00e+00h  1
 119  1.7596955e+03 4.47e-04 1.18e+06  -8.4 2.25e-06  11.4 6.82e-01 4.21e-01h  1
iter    objective    inf_pr   inf_du lg(mu)  ||d||  lg(rg) alpha_du alpha_pr  ls
 120  1.7596955e+03 4.46e-04 9.07e+05  -8.4 1.72e-06  10.9 5.26e-01 2.31e-01h  1
 121  1.7596955e+03 4.46e-04 9.02e+05  -8.4 3.73e-06  10.4 9.55e-01 5.77e-03h  1
 122  1.7596956e+03 4.45e-04 8.08e+05  -8.4 6.92e-06   9.9 1.00e+00 1.05e-01h  1
 123  1.7596993e+03 4.43e-04 8.82e+06  -8.4 1.89e+01    -  2.15e-05 4.22e-03h  1
 124  1.7596993e+03 4.43e-04 8.82e+06  -8.4 9.96e-06   9.5 7.41e-04 1.12e-05h  1
 125  1.7596993e+03 4.43e-04 8.82e+06  -8.4 2.92e-04   9.0 4.93e-08 2.84e-05f  1
 126  1.7596993e+03 4.43e-04 8.80e+06  -8.4 3.19e-04   8.5 1.30e-03 2.16e-03f  8
 127  1.7596993e+03 4.43e-04 8.80e+06  -8.4 3.23e-04   8.0 1.83e-07 1.87e-05h  7
 128  1.7596993e+03 4.43e-04 8.80e+06  -8.4 3.25e-04   7.5 2.20e-03 8.24e-06h  8
 129  1.7596993e+03 4.43e-04 8.80e+06  -8.4 3.26e-04   7.1 2.68e-05 1.83e-07h 15
iter    objective    inf_pr   inf_du lg(mu)  ||d||  lg(rg) alpha_du alpha_pr  ls
 130  1.7596993e+03 4.43e-04 8.80e+06  -8.4 3.26e-04   6.6 3.97e-02 2.25e-08h 18
 131  1.7596992e+03 4.41e-04 8.55e+06  -8.4 4.19e-04   6.1 2.68e-05 2.88e-02h  1
 132  1.7596995e+03 4.38e-04 8.40e+06  -8.4 9.16e-04   5.6 1.69e-02 1.69e-02s 17
 133  1.7597011e+03 4.25e-04 8.11e+06  -8.4 2.56e-03   5.2 3.47e-02 3.47e-02s 17
 134  1.7597109e+03 3.57e-04 7.48e+06  -8.4 6.49e-03   4.7 7.75e-02 7.75e-02s 17
 135  1.7597358e+03 4.25e-04 6.90e+06  -8.4 1.82e-02   4.2 7.80e-02 7.80e-02s 17
 136  1.7598581e+03 8.11e-04 5.78e+06  -8.4 5.05e-02   3.7 1.62e-01 1.62e-01s 17
 137  1.7599166e+03 8.59e-04 5.59e+06  -8.4 1.38e-01   3.3 3.26e-02 3.26e-02s 17
 138r 1.7599166e+03 8.59e-04 1.00e+03  -4.0 0.00e+00    -  0.00e+00 0.00e+00R  1
 139r 1.7604554e+03 7.98e-04 6.32e+03  -4.2 7.46e+01    -  9.92e-01 9.90e-04f  1
iter    objective    inf_pr   inf_du lg(mu)  ||d||  lg(rg) alpha_du alpha_pr  ls
 140r 1.7612940e+03 1.12e-05 6.79e+01  -5.6 8.96e-02    -  9.90e-01 9.71e-01f  1
 141  1.7610822e+03 1.13e-05 3.15e+02  -8.4 3.86e+01    -  2.51e-01 7.93e-04f  1
 142  1.7607495e+03 1.66e-05 3.67e+03  -8.4 2.41e+00    -  8.96e-01 1.96e-02f  2
 143  1.7599106e+03 2.41e-04 6.73e+02  -8.4 9.76e-02    -  9.97e-01 8.44e-01f  1
 144  1.7603515e+03 4.42e-05 3.51e+02  -8.4 1.40e-01    -  8.82e-01 1.00e+00h  1
 145  1.7603531e+03 4.35e-05 9.71e+03  -4.5 3.97e-01    -  1.00e+00 1.56e-02f  7
 146  1.7604506e+03 3.53e-07 3.07e+02  -4.5 3.35e-01    -  1.00e+00 1.00e+00h  1
 147  1.7604509e+03 3.19e-08 1.56e+02  -5.4 2.22e-01    -  1.00e+00 1.00e+00h  1
 148  1.7604509e+03 1.02e-08 2.08e+02  -5.5 1.37e-01    -  1.00e+00 1.00e+00h  1
 149  1.7604509e+03 1.04e-08 3.04e+01  -5.5 3.10e-02    -  1.00e+00 1.00e+00h  1
iter    objective    inf_pr   inf_du lg(mu)  ||d||  lg(rg) alpha_du alpha_pr  ls
 150  1.7604509e+03 7.99e-09 1.92e+00  -5.5 2.15e-03    -  1.00e+00 1.00e+00h  1
 151  1.7604509e+03 6.67e-09 3.76e-01  -5.5 2.45e-04    -  1.00e+00 1.00e+00h  1
 152  1.7604509e+03 5.64e-09 2.07e-01  -5.5 1.58e-04    -  1.00e+00 1.00e+00h  1
 153  1.7604509e+03 8.37e-09 3.80e+02  -6.4 8.62e-02    -  1.00e+00 1.00e+00H  1
 154  1.7604509e+03 6.11e-09 3.84e+02  -6.4 4.22e-02    -  1.00e+00 1.00e+00H  1
 155  1.7604509e+03 4.97e-08 9.94e+03  -6.4 9.55e-03    -  1.00e+00 1.00e+00h  1
 156  1.7604509e+03 1.65e-08 2.29e+02  -6.4 9.68e-04    -  1.00e+00 9.81e-01h  1
 157  1.7604509e+03 6.67e-09 2.67e+02  -6.4 2.10e-04    -  1.00e+00 1.00e+00f  1
 158  1.7604509e+03 4.63e-09 1.53e+02  -6.4 1.38e-04    -  1.00e+00 1.00e+00h  1
 159  1.7604509e+03 2.40e-09 3.03e+01  -6.4 8.01e-05    -  1.00e+00 1.00e+00h  1
iter    objective    inf_pr   inf_du lg(mu)  ||d||  lg(rg) alpha_du alpha_pr  ls
 160  1.7604509e+03 1.29e-09 4.94e+00  -6.4 4.28e-05    -  1.00e+00 1.00e+00h  1
 161  1.7604509e+03 7.54e-10 1.27e+00  -6.4 3.36e-05    -  1.00e+00 1.00e+00h  1
 162  1.7604509e+03 7.19e-10 3.70e-01  -6.4 3.20e-05    -  1.00e+00 1.00e+00h  1
 163  1.7604509e+03 6.82e-10 1.10e-01  -6.4 3.03e-05    -  1.00e+00 1.00e+00h  1
 164  1.7604509e+03 4.40e-09 4.93e+01  -7.6 3.26e-02    -  1.00e+00 1.00e+00h  1
 165  1.7604509e+03 2.49e-09 3.00e+01  -7.6 1.46e-02    -  9.24e-01 1.00e+00h  1
 166  1.7604509e+03 1.46e-09 6.97e+00  -7.6 4.19e-03    -  1.00e+00 1.00e+00h  1
 167  1.7604509e+03 1.43e-09 7.02e-01  -7.6 6.51e-04    -  1.00e+00 1.00e+00h  1
 168  1.7604509e+03 1.35e-09 1.25e-01  -7.6 1.23e-04    -  1.00e+00 1.00e+00h  1
 169  1.7604509e+03 1.39e-09 9.92e+00  -9.1 9.41e-03    -  1.00e+00 1.00e+00h  1
iter    objective    inf_pr   inf_du lg(mu)  ||d||  lg(rg) alpha_du alpha_pr  ls
 170  1.7604509e+03 1.22e-09 3.37e+01  -9.1 4.51e-03    -  2.49e-01 1.00e+00h  1
 171  1.7604509e+03 1.21e-09 1.19e+01  -9.1 1.43e-03    -  8.48e-01 1.00e+00h  1
 172  1.7604509e+03 1.09e-09 1.44e+01  -9.1 7.59e-04    -  7.18e-01 1.00e+00h  1
 173  1.7604509e+03 7.97e-10 5.57e-02  -9.1 1.79e-04    -  1.00e+00 1.00e+00h  1
 174  1.7604509e+03 1.92e-10 2.41e-01  -9.1 8.66e-05    -  9.66e-01 1.00e+00h  1
 175  1.7604509e+03 2.03e-10 4.71e-03  -9.1 1.89e-05    -  1.00e+00 1.00e+00h  1
 176  1.7604509e+03 1.14e-11 1.77e-02  -9.6 1.27e-03    -  1.00e+00 1.00e+00h  1
 177  1.7604509e+03 4.10e-12 9.86e-04  -9.7 5.06e-04    -  1.00e+00 1.00e+00h  1
 178  1.7604509e+03 1.10e-12 1.64e-03 -11.0 8.46e-04    -  1.00e+00 1.00e+00h  1
 179  1.7604509e+03 3.89e-13 2.95e-04 -11.0 3.87e-04    -  1.00e+00 1.00e+00h  1
iter    objective    inf_pr   inf_du lg(mu)  ||d||  lg(rg) alpha_du alpha_pr  ls
 180  1.7604509e+03 4.82e-13 3.16e-04 -11.0 1.38e-04    -  1.00e+00 1.00e+00h  1
 181  1.7604509e+03 4.76e-13 3.08e-04 -11.0 2.37e-05    -  1.00e+00 5.00e-01h  2
 182  1.7604509e+03 4.77e-13 2.91e-04 -11.0 1.26e-05    -  1.00e+00 1.00e+00h  1
 183  1.7604509e+03 4.77e-13 2.91e-04 -11.0 1.21e-08    -  1.00e+00 3.91e-03h  9
 184  1.7604509e+03 4.77e-13 2.91e-04 -11.0 1.21e-08    -  1.00e+00 3.91e-03h  9
 185  1.7604509e+03 4.77e-13 2.91e-04 -11.0 1.20e-08    -  1.00e+00 2.44e-04h 13
 186  1.7604509e+03 4.77e-13 2.91e-04 -11.0 1.20e-08    -  1.00e+00 2.44e-04h 13
 187  1.7604509e+03 4.77e-13 2.91e-04 -11.0 1.20e-08    -  1.00e+00 2.44e-04h 13
 188  1.7604509e+03 4.01e-12 2.75e-04 -11.0 1.20e-08    -  1.00e+00 1.00e+00H  1
 189  1.7604509e+03 2.11e-12 2.60e-04 -11.0 3.79e-12    -  1.00e+00 1.00e+00h  1
iter    objective    inf_pr   inf_du lg(mu)  ||d||  lg(rg) alpha_du alpha_pr  ls
 190  1.7604509e+03 1.59e-12 2.46e-04 -11.0 8.18e-13    -  1.00e+00 1.00e+00h  1
 191  1.7604509e+03 1.38e-12 2.44e-04 -11.0 2.26e-11    -  1.00e+00 1.25e-01h  4
 192  1.7604509e+03 1.33e-12 2.44e-04 -11.0 1.31e-11    -  1.00e+00 3.13e-02h  6
 193  1.7604509e+03 4.64e-13 2.30e-04 -11.0 2.22e-12    -  1.00e+00 1.00e+00h  1
 194  1.7604509e+03 2.85e-13 2.29e-04 -11.0 1.69e-11    -  1.00e+00 1.25e-01h  4
 195  1.7604509e+03 2.85e-13 2.23e-04 -11.0 6.75e-12    -  1.00e+00 5.00e-01h  2
 196  1.7604509e+03 4.60e-13 2.22e-04 -11.0 2.74e-12    -  1.00e+00 6.25e-02h  5
 197  1.7604509e+03 1.56e-12 2.10e-04 -11.0 1.50e-11    -  1.00e+00 1.00e+00H  1
 198  1.7604509e+03 2.11e-12 1.98e-04 -11.0 5.18e-12    -  1.00e+00 1.00e+00h  1
 199  1.7604509e+03 2.11e-12 1.96e-04 -11.0 6.97e-11    -  1.00e+00 2.50e-01h  3
iter    objective    inf_pr   inf_du lg(mu)  ||d||  lg(rg) alpha_du alpha_pr  ls
 200  1.7604509e+03 2.11e-12 1.95e-04 -11.0 7.00e-11    -  1.00e+00 6.25e-02h  5
 201  1.7604509e+03 2.11e-12 1.95e-04 -11.0 6.73e-11    -  1.00e+00 3.13e-02h  6
 202  1.7604509e+03 2.11e-12 1.94e-04 -11.0 6.74e-11    -  1.00e+00 7.81e-03h  8
 203  1.7604509e+03 2.11e-12 1.94e-04 -11.0 6.75e-11    -  1.00e+00 4.88e-04h 12
 204  1.7604509e+03 2.11e-12 1.94e-04 -11.0 6.75e-11    -  1.00e+00 2.44e-04h 13
 205  1.7604509e+03 2.11e-12 1.94e-04 -11.0 7.03e-11    -  1.00e+00 4.88e-04h 12
 206  1.7604509e+03 2.11e-12 1.94e-04 -11.0 6.74e-11    -  1.00e+00 3.05e-05h 16
 207  1.7604509e+03 2.11e-12 1.94e-04 -11.0 6.74e-11    -  1.00e+00 3.05e-05h 16
 208  1.7604509e+03 2.11e-12 1.94e-04 -11.0 6.74e-11    -  1.00e+00 1.22e-04h 14
 209  1.7604509e+03 2.40e-12 1.84e-04 -11.0 7.03e-11    -  1.00e+00 1.00e+00w  1
iter    objective    inf_pr   inf_du lg(mu)  ||d||  lg(rg) alpha_du alpha_pr  ls
 210  1.7604509e+03 2.11e-12 1.74e-04 -11.0 6.76e-11    -  1.00e+00 1.00e+00w  1
 211  1.7604509e+03 3.35e-12 1.64e-04 -11.0 7.15e-11    -  1.00e+00 1.00e+00w  1
 212  1.7604509e+03 2.11e-12 1.94e-04 -11.0 6.14e-11    -  1.00e+00 1.22e-04h 13
 213  1.7604509e+03 2.11e-12 1.94e-04 -11.0 7.02e-11    -  1.00e+00 1.22e-04h 14
 214  1.7604509e+03 2.11e-12 1.94e-04 -11.0 6.74e-11    -  1.00e+00 1.22e-04h 14
 215  1.7604509e+03 2.11e-12 1.94e-04 -11.0 6.74e-11    -  1.00e+00 1.22e-04h 14
 216  1.7604509e+03 2.11e-12 1.94e-04 -11.0 7.02e-11    -  1.00e+00 9.77e-04h 11
 217  1.7604509e+03 2.11e-12 1.94e-04 -11.0 6.73e-11    -  1.00e+00 4.88e-04h 12
 218  1.7604509e+03 2.40e-12 1.84e-04 -11.0 7.01e-11    -  1.00e+00 1.00e+00s 22
 219  1.7604509e+03 2.11e-12 1.74e-04 -11.0 6.76e-11    -  1.00e+00 1.00e+00s 22
iter    objective    inf_pr   inf_du lg(mu)  ||d||  lg(rg) alpha_du alpha_pr  ls
 220  1.7604509e+03 2.31e-12 1.64e-04 -11.0 7.15e-11    -  1.00e+00 1.00e+00s 22
 221  1.7604509e+03 2.11e-12 1.55e-04 -11.0 6.13e-11    -  1.00e+00 1.00e+00s 22
 222  1.7604509e+03 4.89e-12 1.47e-04 -11.0 6.81e-11    -  1.00e+00 1.00e+00s 22
 223  1.7604509e+03 3.35e-12 1.39e-04 -11.0 3.76e-12    -  1.00e+00 1.00e+00s 22
 224  1.7604509e+03 2.11e-12 1.31e-04 -11.0 6.32e-11    -  1.00e+00 1.00e+00s 22
 225  1.7604509e+03 2.02e-12 1.24e-04 -11.0 6.79e-11    -  1.00e+00 1.00e+00s 22
 226  1.7604509e+03 1.59e-12 1.17e-04 -11.0 5.98e-11    -  1.00e+00 1.00e+00s 22
 227  1.7604509e+03 3.42e-12 1.11e-04 -11.0 6.80e-12    -  1.00e+00 1.00e+00s 22
 228  1.7604509e+03 3.10e-12 1.05e-04 -11.0 6.60e-11    -  1.00e+00 1.00e+00s 22
Restoration phase is called at point that is almost feasible,
  with constraint violation 3.491279e-13. Abort.

Number of Iterations....: 228

                                   (scaled)                 (unscaled)
Objective...............:   6.1494882760128201e+02    1.7604508852554738e+03
Dual infeasibility......:   1.0486970970281128e-04    3.0021680666167638e-04
Constraint violation....:   2.8421709430404007e-14    3.0959679264697115e-12
Complementarity.........:   1.0000000012162327e-11    2.8627599702296295e-11
Overall NLP error.......:   2.2136883892867030e-05    3.0021680666167638e-04


Number of objective function evaluations             = 698
Number of objective gradient evaluations             = 218
Number of equality constraint evaluations            = 698
Number of inequality constraint evaluations          = 698
Number of equality constraint Jacobian evaluations   = 232
Number of inequality constraint Jacobian evaluations = 232
Number of Lagrangian Hessian evaluations             = 229
Total CPU secs in IPOPT (w/o function evaluations)   =      0.193
Total CPU secs in NLP function evaluations           =      0.019

EXIT: Restoration Failed!
